(set-info :smt-lib-version 2.6)
(set-logic ALL)
(declare-sort Nat$ 0)
(declare-fun to_int$ (Nat$) Int)
(declare-fun nat_bridge$ (Int) Nat$)
(declare-fun score$ (Nat$) Int)
(set-info :source |
Mathsat benchmarks available from http://mathsat.itc.it

This benchmark was automatically translated into SMT-LIB format from
CVC format using CVC Lite
|)
(set-info :category "industrial")
(set-info :status sat)
(declare-fun arg1 () Nat$)
(declare-fun ARG2_LSBRCK_0_RSBRCK_ () Bool)
(declare-fun arg2_LSBRCK_0_RSBRCK_ () Nat$)
(declare-fun ARG2_LSBRCK_10_RSBRCK_ () Bool)
(declare-fun arg2_LSBRCK_10_RSBRCK_ () Nat$)
(declare-fun ARG2_LSBRCK_11_RSBRCK_ () Bool)
(declare-fun arg2_LSBRCK_11_RSBRCK_ () Nat$)
(declare-fun ARG2_LSBRCK_12_RSBRCK_ () Bool)
(declare-fun arg2_LSBRCK_12_RSBRCK_ () Nat$)
(declare-fun ARG2_LSBRCK_13_RSBRCK_ () Bool)
(declare-fun arg2_LSBRCK_13_RSBRCK_ () Nat$)
(declare-fun ARG2_LSBRCK_14_RSBRCK_ () Bool)
(declare-fun arg2_LSBRCK_14_RSBRCK_ () Nat$)
(declare-fun ARG2_LSBRCK_15_RSBRCK_ () Bool)
(declare-fun arg2_LSBRCK_15_RSBRCK_ () Nat$)
(declare-fun ARG2_LSBRCK_16_RSBRCK_ () Bool)
(declare-fun arg2_LSBRCK_16_RSBRCK_ () Nat$)
(declare-fun ARG2_LSBRCK_17_RSBRCK_ () Bool)
(declare-fun arg2_LSBRCK_17_RSBRCK_ () Nat$)
(declare-fun ARG2_LSBRCK_18_RSBRCK_ () Bool)
(declare-fun arg2_LSBRCK_18_RSBRCK_ () Nat$)
(declare-fun ARG2_LSBRCK_19_RSBRCK_ () Bool)
(declare-fun arg2_LSBRCK_19_RSBRCK_ () Nat$)
(declare-fun ARG2_LSBRCK_1_RSBRCK_ () Bool)
(declare-fun arg2_LSBRCK_1_RSBRCK_ () Nat$)
(declare-fun ARG2_LSBRCK_20_RSBRCK_ () Bool)
(declare-fun arg2_LSBRCK_20_RSBRCK_ () Nat$)
(declare-fun ARG2_LSBRCK_21_RSBRCK_ () Bool)
(declare-fun arg2_LSBRCK_21_RSBRCK_ () Nat$)
(declare-fun ARG2_LSBRCK_22_RSBRCK_ () Bool)
(declare-fun arg2_LSBRCK_22_RSBRCK_ () Nat$)
(declare-fun ARG2_LSBRCK_23_RSBRCK_ () Bool)
(declare-fun arg2_LSBRCK_23_RSBRCK_ () Nat$)
(declare-fun ARG2_LSBRCK_24_RSBRCK_ () Bool)
(declare-fun arg2_LSBRCK_24_RSBRCK_ () Nat$)
(declare-fun ARG2_LSBRCK_25_RSBRCK_ () Bool)
(declare-fun arg2_LSBRCK_25_RSBRCK_ () Nat$)
(declare-fun ARG2_LSBRCK_26_RSBRCK_ () Bool)
(declare-fun arg2_LSBRCK_26_RSBRCK_ () Nat$)
(declare-fun ARG2_LSBRCK_27_RSBRCK_ () Bool)
(declare-fun arg2_LSBRCK_27_RSBRCK_ () Nat$)
(declare-fun ARG2_LSBRCK_28_RSBRCK_ () Bool)
(declare-fun arg2_LSBRCK_28_RSBRCK_ () Nat$)
(declare-fun ARG2_LSBRCK_29_RSBRCK_ () Bool)
(declare-fun arg2_LSBRCK_29_RSBRCK_ () Nat$)
(declare-fun ARG2_LSBRCK_2_RSBRCK_ () Bool)
(declare-fun arg2_LSBRCK_2_RSBRCK_ () Nat$)
(declare-fun ARG2_LSBRCK_30_RSBRCK_ () Bool)
(declare-fun arg2_LSBRCK_30_RSBRCK_ () Nat$)
(declare-fun ARG2_LSBRCK_31_RSBRCK_ () Bool)
(declare-fun arg2_LSBRCK_31_RSBRCK_ () Nat$)
(declare-fun ARG2_LSBRCK_3_RSBRCK_ () Bool)
(declare-fun arg2_LSBRCK_3_RSBRCK_ () Nat$)
(declare-fun ARG2_LSBRCK_4_RSBRCK_ () Bool)
(declare-fun arg2_LSBRCK_4_RSBRCK_ () Nat$)
(declare-fun ARG2_LSBRCK_5_RSBRCK_ () Bool)
(declare-fun arg2_LSBRCK_5_RSBRCK_ () Nat$)
(declare-fun ARG2_LSBRCK_6_RSBRCK_ () Bool)
(declare-fun arg2_LSBRCK_6_RSBRCK_ () Nat$)
(declare-fun ARG2_LSBRCK_7_RSBRCK_ () Bool)
(declare-fun arg2_LSBRCK_7_RSBRCK_ () Nat$)
(declare-fun ARG2_LSBRCK_8_RSBRCK_ () Bool)
(declare-fun arg2_LSBRCK_8_RSBRCK_ () Nat$)
(declare-fun ARG2_LSBRCK_9_RSBRCK_ () Bool)
(declare-fun arg2_LSBRCK_9_RSBRCK_ () Nat$)
(declare-fun arg2 () Nat$)
(declare-fun mul () Nat$)
(declare-fun mul_sum_LSBRCK_0_RSBRCK_ () Nat$)
(declare-fun mul_sum_LSBRCK_10_RSBRCK_ () Nat$)
(declare-fun mul_sum_LSBRCK_11_RSBRCK_ () Nat$)
(declare-fun mul_sum_LSBRCK_12_RSBRCK_ () Nat$)
(declare-fun mul_sum_LSBRCK_13_RSBRCK_ () Nat$)
(declare-fun mul_sum_LSBRCK_14_RSBRCK_ () Nat$)
(declare-fun mul_sum_LSBRCK_15_RSBRCK_ () Nat$)
(declare-fun mul_sum_LSBRCK_16_RSBRCK_ () Nat$)
(declare-fun mul_sum_LSBRCK_17_RSBRCK_ () Nat$)
(declare-fun mul_sum_LSBRCK_18_RSBRCK_ () Nat$)
(declare-fun mul_sum_LSBRCK_19_RSBRCK_ () Nat$)
(declare-fun mul_sum_LSBRCK_1_RSBRCK_ () Nat$)
(declare-fun mul_sum_LSBRCK_20_RSBRCK_ () Nat$)
(declare-fun mul_sum_LSBRCK_21_RSBRCK_ () Nat$)
(declare-fun mul_sum_LSBRCK_22_RSBRCK_ () Nat$)
(declare-fun mul_sum_LSBRCK_23_RSBRCK_ () Nat$)
(declare-fun mul_sum_LSBRCK_24_RSBRCK_ () Nat$)
(declare-fun mul_sum_LSBRCK_25_RSBRCK_ () Nat$)
(declare-fun mul_sum_LSBRCK_26_RSBRCK_ () Nat$)
(declare-fun mul_sum_LSBRCK_27_RSBRCK_ () Nat$)
(declare-fun mul_sum_LSBRCK_28_RSBRCK_ () Nat$)
(declare-fun mul_sum_LSBRCK_29_RSBRCK_ () Nat$)
(declare-fun mul_sum_LSBRCK_2_RSBRCK_ () Nat$)
(declare-fun mul_sum_LSBRCK_30_RSBRCK_ () Nat$)
(declare-fun mul_sum_LSBRCK_31_RSBRCK_ () Nat$)
(declare-fun mul_sum_LSBRCK_3_RSBRCK_ () Nat$)
(declare-fun mul_sum_LSBRCK_4_RSBRCK_ () Nat$)
(declare-fun mul_sum_LSBRCK_5_RSBRCK_ () Nat$)
(declare-fun mul_sum_LSBRCK_6_RSBRCK_ () Nat$)
(declare-fun mul_sum_LSBRCK_7_RSBRCK_ () Nat$)
(declare-fun mul_sum_LSBRCK_8_RSBRCK_ () Nat$)
(declare-fun mul_sum_LSBRCK_9_RSBRCK_ () Nat$)
(declare-fun mul_sum () Nat$)
(assert (let ((?v_0 (not ARG2_LSBRCK_0_RSBRCK_)) (?v_1 (not ARG2_LSBRCK_1_RSBRCK_)) (?v_2 (not ARG2_LSBRCK_2_RSBRCK_)) (?v_3 (not ARG2_LSBRCK_3_RSBRCK_)) (?v_4 (not ARG2_LSBRCK_4_RSBRCK_)) (?v_5 (not ARG2_LSBRCK_5_RSBRCK_)) (?v_6 (not ARG2_LSBRCK_6_RSBRCK_)) (?v_7 (not ARG2_LSBRCK_7_RSBRCK_)) (?v_8 (not ARG2_LSBRCK_8_RSBRCK_)) (?v_9 (not ARG2_LSBRCK_9_RSBRCK_)) (?v_10 (not ARG2_LSBRCK_10_RSBRCK_)) (?v_11 (not ARG2_LSBRCK_11_RSBRCK_)) (?v_12 (not ARG2_LSBRCK_12_RSBRCK_)) (?v_13 (not ARG2_LSBRCK_13_RSBRCK_)) (?v_14 (not ARG2_LSBRCK_14_RSBRCK_)) (?v_15 (not ARG2_LSBRCK_15_RSBRCK_)) (?v_16 (not ARG2_LSBRCK_16_RSBRCK_)) (?v_17 (not ARG2_LSBRCK_17_RSBRCK_)) (?v_18 (not ARG2_LSBRCK_18_RSBRCK_)) (?v_19 (not ARG2_LSBRCK_19_RSBRCK_)) (?v_20 (not ARG2_LSBRCK_20_RSBRCK_)) (?v_21 (not ARG2_LSBRCK_21_RSBRCK_)) (?v_22 (not ARG2_LSBRCK_22_RSBRCK_)) (?v_23 (not ARG2_LSBRCK_23_RSBRCK_)) (?v_24 (not ARG2_LSBRCK_24_RSBRCK_)) (?v_25 (not ARG2_LSBRCK_25_RSBRCK_)) (?v_26 (not ARG2_LSBRCK_26_RSBRCK_)) (?v_27 (not ARG2_LSBRCK_27_RSBRCK_)) (?v_28 (not ARG2_LSBRCK_28_RSBRCK_)) (?v_29 (not ARG2_LSBRCK_29_RSBRCK_)) (?v_30 (not ARG2_LSBRCK_30_RSBRCK_)) (?v_31 (not ARG2_LSBRCK_31_RSBRCK_))) (and (and (and (and (and (and (and (and (and (and (and (and (and (and (and (and (and (and (and (and (and (and (and (and (and (and (and (and (and (and (and (and (and (and (and (and (and (and (and (and (and (and (and (and (and (and (and (and (and (and (and (and (and (and (and (and (and (and (and (and (and (and (and (and (and (and (and (and (and (and (and (and (and (and (and (and (and (and (and (and (and (and (and (and (and (and (and (and (and (and (and (and (and (and (and (and (and (and (and (and (and (and (and (and (and (and (and (and (and (and (and (and (and (and (and (and (and (and (and (and (and (and (and (and (and (and (and (and (and (and (and (and (and (and (and (and (and (and (and (and (and (and (and (and (and (and (and (and (and (and (and (and (and (and (and (and (and (and (and (and (and (and (and (and (and (and (and (and (and (and (and (and (and (and (and (and (and (and (and (and (and (and (and (and (and (and (and (and (and (and (and (and (and (and (and (and (and (and (and (and (and (and (and (and (and (and (and (and (and (and (and (and (and (and (and (and (and (and (and (and (and (and (and (and (and (and (and (and (and (and (and (and (and (and (and (and (and (and (and (and (and (and (and (and (and (and (and (and (and (and (and (and (and (and (and (and (and (and (and (and (and (and (and (and (and (and (and (>= (to_int$ arg2) 0) (<= (to_int$ arg2) 4294967295)) (= (- (- (- (- (- (- (- (- (- (- (- (- (- (- (- (- (- (- (- (- (- (- (- (- (- (- (- (- (- (- (- (- (to_int$ arg2) (to_int$ arg2_LSBRCK_0_RSBRCK_)) (* 2 (to_int$ arg2_LSBRCK_1_RSBRCK_))) (* 4 (to_int$ arg2_LSBRCK_2_RSBRCK_))) (* 8 (to_int$ arg2_LSBRCK_3_RSBRCK_))) (* 16 (to_int$ arg2_LSBRCK_4_RSBRCK_))) (* 32 (to_int$ arg2_LSBRCK_5_RSBRCK_))) (* 64 (to_int$ arg2_LSBRCK_6_RSBRCK_))) (* 128 (to_int$ arg2_LSBRCK_7_RSBRCK_))) (* 256 (to_int$ arg2_LSBRCK_8_RSBRCK_))) (* 512 (to_int$ arg2_LSBRCK_9_RSBRCK_))) (* 1024 (to_int$ arg2_LSBRCK_10_RSBRCK_))) (* 2048 (to_int$ arg2_LSBRCK_11_RSBRCK_))) (* 4096 (to_int$ arg2_LSBRCK_12_RSBRCK_))) (* 8192 (to_int$ arg2_LSBRCK_13_RSBRCK_))) (* 16384 (to_int$ arg2_LSBRCK_14_RSBRCK_))) (* 32768 (to_int$ arg2_LSBRCK_15_RSBRCK_))) (* 65536 (to_int$ arg2_LSBRCK_16_RSBRCK_))) (* 131072 (to_int$ arg2_LSBRCK_17_RSBRCK_))) (* 262144 (to_int$ arg2_LSBRCK_18_RSBRCK_))) (* 524288 (to_int$ arg2_LSBRCK_19_RSBRCK_))) (* 1048576 (to_int$ arg2_LSBRCK_20_RSBRCK_))) (* 2097152 (to_int$ arg2_LSBRCK_21_RSBRCK_))) (* 4194304 (to_int$ arg2_LSBRCK_22_RSBRCK_))) (* 8388608 (to_int$ arg2_LSBRCK_23_RSBRCK_))) (* 16777216 (to_int$ arg2_LSBRCK_24_RSBRCK_))) (* 33554432 (to_int$ arg2_LSBRCK_25_RSBRCK_))) (* 67108864 (to_int$ arg2_LSBRCK_26_RSBRCK_))) (* 134217728 (to_int$ arg2_LSBRCK_27_RSBRCK_))) (* 268435456 (to_int$ arg2_LSBRCK_28_RSBRCK_))) (* 536870912 (to_int$ arg2_LSBRCK_29_RSBRCK_))) (* 1073741824 (to_int$ arg2_LSBRCK_30_RSBRCK_))) (* 2147483648 (to_int$ arg2_LSBRCK_31_RSBRCK_))) 0)) (>= (to_int$ arg2_LSBRCK_0_RSBRCK_) 0)) (<= (to_int$ arg2_LSBRCK_0_RSBRCK_) 1)) (or ?v_0 (= (to_int$ arg2_LSBRCK_0_RSBRCK_) 1))) (or ARG2_LSBRCK_0_RSBRCK_ (= (to_int$ arg2_LSBRCK_0_RSBRCK_) 0))) (>= (to_int$ arg2_LSBRCK_1_RSBRCK_) 0)) (<= (to_int$ arg2_LSBRCK_1_RSBRCK_) 1)) (or ?v_1 (= (to_int$ arg2_LSBRCK_1_RSBRCK_) 1))) (or ARG2_LSBRCK_1_RSBRCK_ (= (to_int$ arg2_LSBRCK_1_RSBRCK_) 0))) (>= (to_int$ arg2_LSBRCK_2_RSBRCK_) 0)) (<= (to_int$ arg2_LSBRCK_2_RSBRCK_) 1)) (or ?v_2 (= (to_int$ arg2_LSBRCK_2_RSBRCK_) 1))) (or ARG2_LSBRCK_2_RSBRCK_ (= (to_int$ arg2_LSBRCK_2_RSBRCK_) 0))) (>= (to_int$ arg2_LSBRCK_3_RSBRCK_) 0)) (<= (to_int$ arg2_LSBRCK_3_RSBRCK_) 1)) (or ?v_3 (= (to_int$ arg2_LSBRCK_3_RSBRCK_) 1))) (or ARG2_LSBRCK_3_RSBRCK_ (= (to_int$ arg2_LSBRCK_3_RSBRCK_) 0))) (>= (to_int$ arg2_LSBRCK_4_RSBRCK_) 0)) (<= (to_int$ arg2_LSBRCK_4_RSBRCK_) 1)) (or ?v_4 (= (to_int$ arg2_LSBRCK_4_RSBRCK_) 1))) (or ARG2_LSBRCK_4_RSBRCK_ (= (to_int$ arg2_LSBRCK_4_RSBRCK_) 0))) (>= (to_int$ arg2_LSBRCK_5_RSBRCK_) 0)) (<= (to_int$ arg2_LSBRCK_5_RSBRCK_) 1)) (or ?v_5 (= (to_int$ arg2_LSBRCK_5_RSBRCK_) 1))) (or ARG2_LSBRCK_5_RSBRCK_ (= (to_int$ arg2_LSBRCK_5_RSBRCK_) 0))) (>= (to_int$ arg2_LSBRCK_6_RSBRCK_) 0)) (<= (to_int$ arg2_LSBRCK_6_RSBRCK_) 1)) (or ?v_6 (= (to_int$ arg2_LSBRCK_6_RSBRCK_) 1))) (or ARG2_LSBRCK_6_RSBRCK_ (= (to_int$ arg2_LSBRCK_6_RSBRCK_) 0))) (>= (to_int$ arg2_LSBRCK_7_RSBRCK_) 0)) (<= (to_int$ arg2_LSBRCK_7_RSBRCK_) 1)) (or ?v_7 (= (to_int$ arg2_LSBRCK_7_RSBRCK_) 1))) (or ARG2_LSBRCK_7_RSBRCK_ (= (to_int$ arg2_LSBRCK_7_RSBRCK_) 0))) (>= (to_int$ arg2_LSBRCK_8_RSBRCK_) 0)) (<= (to_int$ arg2_LSBRCK_8_RSBRCK_) 1)) (or ?v_8 (= (to_int$ arg2_LSBRCK_8_RSBRCK_) 1))) (or ARG2_LSBRCK_8_RSBRCK_ (= (to_int$ arg2_LSBRCK_8_RSBRCK_) 0))) (>= (to_int$ arg2_LSBRCK_9_RSBRCK_) 0)) (<= (to_int$ arg2_LSBRCK_9_RSBRCK_) 1)) (or ?v_9 (= (to_int$ arg2_LSBRCK_9_RSBRCK_) 1))) (or ARG2_LSBRCK_9_RSBRCK_ (= (to_int$ arg2_LSBRCK_9_RSBRCK_) 0))) (>= (to_int$ arg2_LSBRCK_10_RSBRCK_) 0)) (<= (to_int$ arg2_LSBRCK_10_RSBRCK_) 1)) (or ?v_10 (= (to_int$ arg2_LSBRCK_10_RSBRCK_) 1))) (or ARG2_LSBRCK_10_RSBRCK_ (= (to_int$ arg2_LSBRCK_10_RSBRCK_) 0))) (>= (to_int$ arg2_LSBRCK_11_RSBRCK_) 0)) (<= (to_int$ arg2_LSBRCK_11_RSBRCK_) 1)) (or ?v_11 (= (to_int$ arg2_LSBRCK_11_RSBRCK_) 1))) (or ARG2_LSBRCK_11_RSBRCK_ (= (to_int$ arg2_LSBRCK_11_RSBRCK_) 0))) (>= (to_int$ arg2_LSBRCK_12_RSBRCK_) 0)) (<= (to_int$ arg2_LSBRCK_12_RSBRCK_) 1)) (or ?v_12 (= (to_int$ arg2_LSBRCK_12_RSBRCK_) 1))) (or ARG2_LSBRCK_12_RSBRCK_ (= (to_int$ arg2_LSBRCK_12_RSBRCK_) 0))) (>= (to_int$ arg2_LSBRCK_13_RSBRCK_) 0)) (<= (to_int$ arg2_LSBRCK_13_RSBRCK_) 1)) (or ?v_13 (= (to_int$ arg2_LSBRCK_13_RSBRCK_) 1))) (or ARG2_LSBRCK_13_RSBRCK_ (= (to_int$ arg2_LSBRCK_13_RSBRCK_) 0))) (>= (to_int$ arg2_LSBRCK_14_RSBRCK_) 0)) (<= (to_int$ arg2_LSBRCK_14_RSBRCK_) 1)) (or ?v_14 (= (to_int$ arg2_LSBRCK_14_RSBRCK_) 1))) (or ARG2_LSBRCK_14_RSBRCK_ (= (to_int$ arg2_LSBRCK_14_RSBRCK_) 0))) (>= (to_int$ arg2_LSBRCK_15_RSBRCK_) 0)) (<= (to_int$ arg2_LSBRCK_15_RSBRCK_) 1)) (or ?v_15 (= (to_int$ arg2_LSBRCK_15_RSBRCK_) 1))) (or ARG2_LSBRCK_15_RSBRCK_ (= (to_int$ arg2_LSBRCK_15_RSBRCK_) 0))) (>= (to_int$ arg2_LSBRCK_16_RSBRCK_) 0)) (<= (to_int$ arg2_LSBRCK_16_RSBRCK_) 1)) (or ?v_16 (= (to_int$ arg2_LSBRCK_16_RSBRCK_) 1))) (or ARG2_LSBRCK_16_RSBRCK_ (= (to_int$ arg2_LSBRCK_16_RSBRCK_) 0))) (>= (to_int$ arg2_LSBRCK_17_RSBRCK_) 0)) (<= (to_int$ arg2_LSBRCK_17_RSBRCK_) 1)) (or ?v_17 (= (to_int$ arg2_LSBRCK_17_RSBRCK_) 1))) (or ARG2_LSBRCK_17_RSBRCK_ (= (to_int$ arg2_LSBRCK_17_RSBRCK_) 0))) (>= (to_int$ arg2_LSBRCK_18_RSBRCK_) 0)) (<= (to_int$ arg2_LSBRCK_18_RSBRCK_) 1)) (or ?v_18 (= (to_int$ arg2_LSBRCK_18_RSBRCK_) 1))) (or ARG2_LSBRCK_18_RSBRCK_ (= (to_int$ arg2_LSBRCK_18_RSBRCK_) 0))) (>= (to_int$ arg2_LSBRCK_19_RSBRCK_) 0)) (<= (to_int$ arg2_LSBRCK_19_RSBRCK_) 1)) (or ?v_19 (= (to_int$ arg2_LSBRCK_19_RSBRCK_) 1))) (or ARG2_LSBRCK_19_RSBRCK_ (= (to_int$ arg2_LSBRCK_19_RSBRCK_) 0))) (>= (to_int$ arg2_LSBRCK_20_RSBRCK_) 0)) (<= (to_int$ arg2_LSBRCK_20_RSBRCK_) 1)) (or ?v_20 (= (to_int$ arg2_LSBRCK_20_RSBRCK_) 1))) (or ARG2_LSBRCK_20_RSBRCK_ (= (to_int$ arg2_LSBRCK_20_RSBRCK_) 0))) (>= (to_int$ arg2_LSBRCK_21_RSBRCK_) 0)) (<= (to_int$ arg2_LSBRCK_21_RSBRCK_) 1)) (or ?v_21 (= (to_int$ arg2_LSBRCK_21_RSBRCK_) 1))) (or ARG2_LSBRCK_21_RSBRCK_ (= (to_int$ arg2_LSBRCK_21_RSBRCK_) 0))) (>= (to_int$ arg2_LSBRCK_22_RSBRCK_) 0)) (<= (to_int$ arg2_LSBRCK_22_RSBRCK_) 1)) (or ?v_22 (= (to_int$ arg2_LSBRCK_22_RSBRCK_) 1))) (or ARG2_LSBRCK_22_RSBRCK_ (= (to_int$ arg2_LSBRCK_22_RSBRCK_) 0))) (>= (to_int$ arg2_LSBRCK_23_RSBRCK_) 0)) (<= (to_int$ arg2_LSBRCK_23_RSBRCK_) 1)) (or ?v_23 (= (to_int$ arg2_LSBRCK_23_RSBRCK_) 1))) (or ARG2_LSBRCK_23_RSBRCK_ (= (to_int$ arg2_LSBRCK_23_RSBRCK_) 0))) (>= (to_int$ arg2_LSBRCK_24_RSBRCK_) 0)) (<= (to_int$ arg2_LSBRCK_24_RSBRCK_) 1)) (or ?v_24 (= (to_int$ arg2_LSBRCK_24_RSBRCK_) 1))) (or ARG2_LSBRCK_24_RSBRCK_ (= (to_int$ arg2_LSBRCK_24_RSBRCK_) 0))) (>= (to_int$ arg2_LSBRCK_25_RSBRCK_) 0)) (<= (to_int$ arg2_LSBRCK_25_RSBRCK_) 1)) (or ?v_25 (= (to_int$ arg2_LSBRCK_25_RSBRCK_) 1))) (or ARG2_LSBRCK_25_RSBRCK_ (= (to_int$ arg2_LSBRCK_25_RSBRCK_) 0))) (>= (to_int$ arg2_LSBRCK_26_RSBRCK_) 0)) (<= (to_int$ arg2_LSBRCK_26_RSBRCK_) 1)) (or ?v_26 (= (to_int$ arg2_LSBRCK_26_RSBRCK_) 1))) (or ARG2_LSBRCK_26_RSBRCK_ (= (to_int$ arg2_LSBRCK_26_RSBRCK_) 0))) (>= (to_int$ arg2_LSBRCK_27_RSBRCK_) 0)) (<= (to_int$ arg2_LSBRCK_27_RSBRCK_) 1)) (or ?v_27 (= (to_int$ arg2_LSBRCK_27_RSBRCK_) 1))) (or ARG2_LSBRCK_27_RSBRCK_ (= (to_int$ arg2_LSBRCK_27_RSBRCK_) 0))) (>= (to_int$ arg2_LSBRCK_28_RSBRCK_) 0)) (<= (to_int$ arg2_LSBRCK_28_RSBRCK_) 1)) (or ?v_28 (= (to_int$ arg2_LSBRCK_28_RSBRCK_) 1))) (or ARG2_LSBRCK_28_RSBRCK_ (= (to_int$ arg2_LSBRCK_28_RSBRCK_) 0))) (>= (to_int$ arg2_LSBRCK_29_RSBRCK_) 0)) (<= (to_int$ arg2_LSBRCK_29_RSBRCK_) 1)) (or ?v_29 (= (to_int$ arg2_LSBRCK_29_RSBRCK_) 1))) (or ARG2_LSBRCK_29_RSBRCK_ (= (to_int$ arg2_LSBRCK_29_RSBRCK_) 0))) (>= (to_int$ arg2_LSBRCK_30_RSBRCK_) 0)) (<= (to_int$ arg2_LSBRCK_30_RSBRCK_) 1)) (or ?v_30 (= (to_int$ arg2_LSBRCK_30_RSBRCK_) 1))) (or ARG2_LSBRCK_30_RSBRCK_ (= (to_int$ arg2_LSBRCK_30_RSBRCK_) 0))) (>= (to_int$ arg2_LSBRCK_31_RSBRCK_) 0)) (<= (to_int$ arg2_LSBRCK_31_RSBRCK_) 1)) (or ?v_31 (= (to_int$ arg2_LSBRCK_31_RSBRCK_) 1))) (or ARG2_LSBRCK_31_RSBRCK_ (= (to_int$ arg2_LSBRCK_31_RSBRCK_) 0))) (>= (to_int$ mul_sum_LSBRCK_0_RSBRCK_) 0)) (<= (to_int$ mul_sum_LSBRCK_0_RSBRCK_) 4294967295)) (>= (to_int$ arg1) 0)) (<= (to_int$ arg1) 4294967295)) (or ?v_0 (= (to_int$ mul_sum_LSBRCK_0_RSBRCK_) (to_int$ arg1)))) (or ARG2_LSBRCK_0_RSBRCK_ (= (to_int$ mul_sum_LSBRCK_0_RSBRCK_) 0))) (>= (to_int$ mul_sum_LSBRCK_1_RSBRCK_) 0)) (<= (to_int$ mul_sum_LSBRCK_1_RSBRCK_) 4294967295)) (or ?v_1 (= (to_int$ mul_sum_LSBRCK_1_RSBRCK_) (to_int$ arg1)))) (or ARG2_LSBRCK_1_RSBRCK_ (= (to_int$ mul_sum_LSBRCK_1_RSBRCK_) 0))) (>= (to_int$ mul_sum_LSBRCK_2_RSBRCK_) 0)) (<= (to_int$ mul_sum_LSBRCK_2_RSBRCK_) 4294967295)) (or ?v_2 (= (to_int$ mul_sum_LSBRCK_2_RSBRCK_) (to_int$ arg1)))) (or ARG2_LSBRCK_2_RSBRCK_ (= (to_int$ mul_sum_LSBRCK_2_RSBRCK_) 0))) (>= (to_int$ mul_sum_LSBRCK_3_RSBRCK_) 0)) (<= (to_int$ mul_sum_LSBRCK_3_RSBRCK_) 4294967295)) (or ?v_3 (= (to_int$ mul_sum_LSBRCK_3_RSBRCK_) (to_int$ arg1)))) (or ARG2_LSBRCK_3_RSBRCK_ (= (to_int$ mul_sum_LSBRCK_3_RSBRCK_) 0))) (>= (to_int$ mul_sum_LSBRCK_4_RSBRCK_) 0)) (<= (to_int$ mul_sum_LSBRCK_4_RSBRCK_) 4294967295)) (or ?v_4 (= (to_int$ mul_sum_LSBRCK_4_RSBRCK_) (to_int$ arg1)))) (or ARG2_LSBRCK_4_RSBRCK_ (= (to_int$ mul_sum_LSBRCK_4_RSBRCK_) 0))) (>= (to_int$ mul_sum_LSBRCK_5_RSBRCK_) 0)) (<= (to_int$ mul_sum_LSBRCK_5_RSBRCK_) 4294967295)) (or ?v_5 (= (to_int$ mul_sum_LSBRCK_5_RSBRCK_) (to_int$ arg1)))) (or ARG2_LSBRCK_5_RSBRCK_ (= (to_int$ mul_sum_LSBRCK_5_RSBRCK_) 0))) (>= (to_int$ mul_sum_LSBRCK_6_RSBRCK_) 0)) (<= (to_int$ mul_sum_LSBRCK_6_RSBRCK_) 4294967295)) (or ?v_6 (= (to_int$ mul_sum_LSBRCK_6_RSBRCK_) (to_int$ arg1)))) (or ARG2_LSBRCK_6_RSBRCK_ (= (to_int$ mul_sum_LSBRCK_6_RSBRCK_) 0))) (>= (to_int$ mul_sum_LSBRCK_7_RSBRCK_) 0)) (<= (to_int$ mul_sum_LSBRCK_7_RSBRCK_) 4294967295)) (or ?v_7 (= (to_int$ mul_sum_LSBRCK_7_RSBRCK_) (to_int$ arg1)))) (or ARG2_LSBRCK_7_RSBRCK_ (= (to_int$ mul_sum_LSBRCK_7_RSBRCK_) 0))) (>= (to_int$ mul_sum_LSBRCK_8_RSBRCK_) 0)) (<= (to_int$ mul_sum_LSBRCK_8_RSBRCK_) 4294967295)) (or ?v_8 (= (to_int$ mul_sum_LSBRCK_8_RSBRCK_) (to_int$ arg1)))) (or ARG2_LSBRCK_8_RSBRCK_ (= (to_int$ mul_sum_LSBRCK_8_RSBRCK_) 0))) (>= (to_int$ mul_sum_LSBRCK_9_RSBRCK_) 0)) (<= (to_int$ mul_sum_LSBRCK_9_RSBRCK_) 4294967295)) (or ?v_9 (= (to_int$ mul_sum_LSBRCK_9_RSBRCK_) (to_int$ arg1)))) (or ARG2_LSBRCK_9_RSBRCK_ (= (to_int$ mul_sum_LSBRCK_9_RSBRCK_) 0))) (>= (to_int$ mul_sum_LSBRCK_10_RSBRCK_) 0)) (<= (to_int$ mul_sum_LSBRCK_10_RSBRCK_) 4294967295)) (or ?v_10 (= (to_int$ mul_sum_LSBRCK_10_RSBRCK_) (to_int$ arg1)))) (or ARG2_LSBRCK_10_RSBRCK_ (= (to_int$ mul_sum_LSBRCK_10_RSBRCK_) 0))) (>= (to_int$ mul_sum_LSBRCK_11_RSBRCK_) 0)) (<= (to_int$ mul_sum_LSBRCK_11_RSBRCK_) 4294967295)) (or ?v_11 (= (to_int$ mul_sum_LSBRCK_11_RSBRCK_) (to_int$ arg1)))) (or ARG2_LSBRCK_11_RSBRCK_ (= (to_int$ mul_sum_LSBRCK_11_RSBRCK_) 0))) (>= (to_int$ mul_sum_LSBRCK_12_RSBRCK_) 0)) (<= (to_int$ mul_sum_LSBRCK_12_RSBRCK_) 4294967295)) (or ?v_12 (= (to_int$ mul_sum_LSBRCK_12_RSBRCK_) (to_int$ arg1)))) (or ARG2_LSBRCK_12_RSBRCK_ (= (to_int$ mul_sum_LSBRCK_12_RSBRCK_) 0))) (>= (to_int$ mul_sum_LSBRCK_13_RSBRCK_) 0)) (<= (to_int$ mul_sum_LSBRCK_13_RSBRCK_) 4294967295)) (or ?v_13 (= (to_int$ mul_sum_LSBRCK_13_RSBRCK_) (to_int$ arg1)))) (or ARG2_LSBRCK_13_RSBRCK_ (= (to_int$ mul_sum_LSBRCK_13_RSBRCK_) 0))) (>= (to_int$ mul_sum_LSBRCK_14_RSBRCK_) 0)) (<= (to_int$ mul_sum_LSBRCK_14_RSBRCK_) 4294967295)) (or ?v_14 (= (to_int$ mul_sum_LSBRCK_14_RSBRCK_) (to_int$ arg1)))) (or ARG2_LSBRCK_14_RSBRCK_ (= (to_int$ mul_sum_LSBRCK_14_RSBRCK_) 0))) (>= (to_int$ mul_sum_LSBRCK_15_RSBRCK_) 0)) (<= (to_int$ mul_sum_LSBRCK_15_RSBRCK_) 4294967295)) (or ?v_15 (= (to_int$ mul_sum_LSBRCK_15_RSBRCK_) (to_int$ arg1)))) (or ARG2_LSBRCK_15_RSBRCK_ (= (to_int$ mul_sum_LSBRCK_15_RSBRCK_) 0))) (>= (to_int$ mul_sum_LSBRCK_16_RSBRCK_) 0)) (<= (to_int$ mul_sum_LSBRCK_16_RSBRCK_) 4294967295)) (or ?v_16 (= (to_int$ mul_sum_LSBRCK_16_RSBRCK_) (to_int$ arg1)))) (or ARG2_LSBRCK_16_RSBRCK_ (= (to_int$ mul_sum_LSBRCK_16_RSBRCK_) 0))) (>= (to_int$ mul_sum_LSBRCK_17_RSBRCK_) 0)) (<= (to_int$ mul_sum_LSBRCK_17_RSBRCK_) 4294967295)) (or ?v_17 (= (to_int$ mul_sum_LSBRCK_17_RSBRCK_) (to_int$ arg1)))) (or ARG2_LSBRCK_17_RSBRCK_ (= (to_int$ mul_sum_LSBRCK_17_RSBRCK_) 0))) (>= (to_int$ mul_sum_LSBRCK_18_RSBRCK_) 0)) (<= (to_int$ mul_sum_LSBRCK_18_RSBRCK_) 4294967295)) (or ?v_18 (= (to_int$ mul_sum_LSBRCK_18_RSBRCK_) (to_int$ arg1)))) (or ARG2_LSBRCK_18_RSBRCK_ (= (to_int$ mul_sum_LSBRCK_18_RSBRCK_) 0))) (>= (to_int$ mul_sum_LSBRCK_19_RSBRCK_) 0)) (<= (to_int$ mul_sum_LSBRCK_19_RSBRCK_) 4294967295)) (or ?v_19 (= (to_int$ mul_sum_LSBRCK_19_RSBRCK_) (to_int$ arg1)))) (or ARG2_LSBRCK_19_RSBRCK_ (= (to_int$ mul_sum_LSBRCK_19_RSBRCK_) 0))) (>= (to_int$ mul_sum_LSBRCK_20_RSBRCK_) 0)) (<= (to_int$ mul_sum_LSBRCK_20_RSBRCK_) 4294967295)) (or ?v_20 (= (to_int$ mul_sum_LSBRCK_20_RSBRCK_) (to_int$ arg1)))) (or ARG2_LSBRCK_20_RSBRCK_ (= (to_int$ mul_sum_LSBRCK_20_RSBRCK_) 0))) (>= (to_int$ mul_sum_LSBRCK_21_RSBRCK_) 0)) (<= (to_int$ mul_sum_LSBRCK_21_RSBRCK_) 4294967295)) (or ?v_21 (= (to_int$ mul_sum_LSBRCK_21_RSBRCK_) (to_int$ arg1)))) (or ARG2_LSBRCK_21_RSBRCK_ (= (to_int$ mul_sum_LSBRCK_21_RSBRCK_) 0))) (>= (to_int$ mul_sum_LSBRCK_22_RSBRCK_) 0)) (<= (to_int$ mul_sum_LSBRCK_22_RSBRCK_) 4294967295)) (or ?v_22 (= (to_int$ mul_sum_LSBRCK_22_RSBRCK_) (to_int$ arg1)))) (or ARG2_LSBRCK_22_RSBRCK_ (= (to_int$ mul_sum_LSBRCK_22_RSBRCK_) 0))) (>= (to_int$ mul_sum_LSBRCK_23_RSBRCK_) 0)) (<= (to_int$ mul_sum_LSBRCK_23_RSBRCK_) 4294967295)) (or ?v_23 (= (to_int$ mul_sum_LSBRCK_23_RSBRCK_) (to_int$ arg1)))) (or ARG2_LSBRCK_23_RSBRCK_ (= (to_int$ mul_sum_LSBRCK_23_RSBRCK_) 0))) (>= (to_int$ mul_sum_LSBRCK_24_RSBRCK_) 0)) (<= (to_int$ mul_sum_LSBRCK_24_RSBRCK_) 4294967295)) (or ?v_24 (= (to_int$ mul_sum_LSBRCK_24_RSBRCK_) (to_int$ arg1)))) (or ARG2_LSBRCK_24_RSBRCK_ (= (to_int$ mul_sum_LSBRCK_24_RSBRCK_) 0))) (>= (to_int$ mul_sum_LSBRCK_25_RSBRCK_) 0)) (<= (to_int$ mul_sum_LSBRCK_25_RSBRCK_) 4294967295)) (or ?v_25 (= (to_int$ mul_sum_LSBRCK_25_RSBRCK_) (to_int$ arg1)))) (or ARG2_LSBRCK_25_RSBRCK_ (= (to_int$ mul_sum_LSBRCK_25_RSBRCK_) 0))) (>= (to_int$ mul_sum_LSBRCK_26_RSBRCK_) 0)) (<= (to_int$ mul_sum_LSBRCK_26_RSBRCK_) 4294967295)) (or ?v_26 (= (to_int$ mul_sum_LSBRCK_26_RSBRCK_) (to_int$ arg1)))) (or ARG2_LSBRCK_26_RSBRCK_ (= (to_int$ mul_sum_LSBRCK_26_RSBRCK_) 0))) (>= (to_int$ mul_sum_LSBRCK_27_RSBRCK_) 0)) (<= (to_int$ mul_sum_LSBRCK_27_RSBRCK_) 4294967295)) (or ?v_27 (= (to_int$ mul_sum_LSBRCK_27_RSBRCK_) (to_int$ arg1)))) (or ARG2_LSBRCK_27_RSBRCK_ (= (to_int$ mul_sum_LSBRCK_27_RSBRCK_) 0))) (>= (to_int$ mul_sum_LSBRCK_28_RSBRCK_) 0)) (<= (to_int$ mul_sum_LSBRCK_28_RSBRCK_) 4294967295)) (or ?v_28 (= (to_int$ mul_sum_LSBRCK_28_RSBRCK_) (to_int$ arg1)))) (or ARG2_LSBRCK_28_RSBRCK_ (= (to_int$ mul_sum_LSBRCK_28_RSBRCK_) 0))) (>= (to_int$ mul_sum_LSBRCK_29_RSBRCK_) 0)) (<= (to_int$ mul_sum_LSBRCK_29_RSBRCK_) 4294967295)) (or ?v_29 (= (to_int$ mul_sum_LSBRCK_29_RSBRCK_) (to_int$ arg1)))) (or ARG2_LSBRCK_29_RSBRCK_ (= (to_int$ mul_sum_LSBRCK_29_RSBRCK_) 0))) (>= (to_int$ mul_sum_LSBRCK_30_RSBRCK_) 0)) (<= (to_int$ mul_sum_LSBRCK_30_RSBRCK_) 4294967295)) (or ?v_30 (= (to_int$ mul_sum_LSBRCK_30_RSBRCK_) (to_int$ arg1)))) (or ARG2_LSBRCK_30_RSBRCK_ (= (to_int$ mul_sum_LSBRCK_30_RSBRCK_) 0))) (>= (to_int$ mul_sum_LSBRCK_31_RSBRCK_) 0)) (<= (to_int$ mul_sum_LSBRCK_31_RSBRCK_) 4294967295)) (or ?v_31 (= (to_int$ mul_sum_LSBRCK_31_RSBRCK_) (to_int$ arg1)))) (or ARG2_LSBRCK_31_RSBRCK_ (= (to_int$ mul_sum_LSBRCK_31_RSBRCK_) 0))) (>= (to_int$ mul_sum) 0)) (<= (to_int$ mul_sum) 18446744073709551615)) (= (- (- (- (- (- (- (- (- (- (- (- (- (- (- (- (- (- (- (- (- (- (- (- (- (- (- (- (- (- (- (- (- (to_int$ mul_sum) (to_int$ mul_sum_LSBRCK_0_RSBRCK_)) (* 2 (to_int$ mul_sum_LSBRCK_1_RSBRCK_))) (* 4 (to_int$ mul_sum_LSBRCK_2_RSBRCK_))) (* 8 (to_int$ mul_sum_LSBRCK_3_RSBRCK_))) (* 16 (to_int$ mul_sum_LSBRCK_4_RSBRCK_))) (* 32 (to_int$ mul_sum_LSBRCK_5_RSBRCK_))) (* 64 (to_int$ mul_sum_LSBRCK_6_RSBRCK_))) (* 128 (to_int$ mul_sum_LSBRCK_7_RSBRCK_))) (* 256 (to_int$ mul_sum_LSBRCK_8_RSBRCK_))) (* 512 (to_int$ mul_sum_LSBRCK_9_RSBRCK_))) (* 1024 (to_int$ mul_sum_LSBRCK_10_RSBRCK_))) (* 2048 (to_int$ mul_sum_LSBRCK_11_RSBRCK_))) (* 4096 (to_int$ mul_sum_LSBRCK_12_RSBRCK_))) (* 8192 (to_int$ mul_sum_LSBRCK_13_RSBRCK_))) (* 16384 (to_int$ mul_sum_LSBRCK_14_RSBRCK_))) (* 32768 (to_int$ mul_sum_LSBRCK_15_RSBRCK_))) (* 65536 (to_int$ mul_sum_LSBRCK_16_RSBRCK_))) (* 131072 (to_int$ mul_sum_LSBRCK_17_RSBRCK_))) (* 262144 (to_int$ mul_sum_LSBRCK_18_RSBRCK_))) (* 524288 (to_int$ mul_sum_LSBRCK_19_RSBRCK_))) (* 1048576 (to_int$ mul_sum_LSBRCK_20_RSBRCK_))) (* 2097152 (to_int$ mul_sum_LSBRCK_21_RSBRCK_))) (* 4194304 (to_int$ mul_sum_LSBRCK_22_RSBRCK_))) (* 8388608 (to_int$ mul_sum_LSBRCK_23_RSBRCK_))) (* 16777216 (to_int$ mul_sum_LSBRCK_24_RSBRCK_))) (* 33554432 (to_int$ mul_sum_LSBRCK_25_RSBRCK_))) (* 67108864 (to_int$ mul_sum_LSBRCK_26_RSBRCK_))) (* 134217728 (to_int$ mul_sum_LSBRCK_27_RSBRCK_))) (* 268435456 (to_int$ mul_sum_LSBRCK_28_RSBRCK_))) (* 536870912 (to_int$ mul_sum_LSBRCK_29_RSBRCK_))) (* 1073741824 (to_int$ mul_sum_LSBRCK_30_RSBRCK_))) (* 2147483648 (to_int$ mul_sum_LSBRCK_31_RSBRCK_))) 0)) (>= (to_int$ mul) 0)) (<= (to_int$ mul) 18446744073709551615)) (= (to_int$ mul) (to_int$ mul_sum))) (= (to_int$ mul) 4))))
(assert (= (score$ (nat_bridge$ (to_int$ arg1))) (to_int$ arg1)))
(assert (= (score$ (nat_bridge$ (to_int$ arg2_LSBRCK_0_RSBRCK_))) (to_int$ arg2_LSBRCK_0_RSBRCK_)))
(assert (= (score$ (nat_bridge$ (to_int$ arg2_LSBRCK_10_RSBRCK_))) (to_int$ arg2_LSBRCK_10_RSBRCK_)))
(check-sat)
(exit)
